ampl/fill_a_pix1.dat
# Puzzle 1 from 
# http://www.conceptispuzzles.com/index.aspx?uri=puzzle/fill-a-pix/rules
param n := 10;
param puzzle: 1 2 3 4 5 6 7 8 9 10 :=
 1  . . . . . . . . 0 . 
 2  . 8 8 . 2 . 0 . . . 
 3  5 . 8 . . . . . . . 
 4  . . . . . 2 . . . 2 
 5  1 . . . 4 5 6 . . . 
 6  . 0 . . . 7 9 . . 6 
 7  . . . 6 . . 9 . . 6 
 8  . . 6 6 8 7 8 7 . 5 
 9  . 4 . 6 6 6 . 6 . 4 
10  . . . . . . 3 . . .
;
